cost: 1419.12
Route 1:           0   52   57   54   53   55   58   56   60   63   66   64   62   61   65   59   47   29   36   34   35   32   28   31   30   33   27   24   22   25   19   16   17   20   23   26   21    0
Route 2:           0  114  109   37   38   39   42   41   44   46   49   50   51   48   45   43   40    0
Route 3:           0   91   90   18  118  108    8   12   13   14   15   11   10    9    7    6    5    4    3    1    2   81   82    0
Route 4:           0   95   96   93   94   97  115  110  116  100   99  101  102    0
Route 5:           0   98   68   73   76   77   79   80   78   75   72   74   71   70   69   67  103  104  107  106  105    0
Route 6:           0   88  111   86  112  117   83  113   84   85   89   92   87    0
Route 7:           0  120  119    0
